$molecule
0 1
  O    0.4899000   -5.1390000    7.9332000
  O   -0.6028000   -5.1667000    6.0207000
  C    4.3739000   -3.4916000    1.7971000
  C    4.3698000   -3.6049000    0.2581000
  C    3.0426000   -4.0021000    2.3885000
  C    5.7087000   -3.1307000   -0.3518000
  C    3.0392000   -3.9247000    3.9296000
  C    8.3110000   -1.8875000   -5.8346000
  C    8.6874000   -2.8602000   -6.9756000
  C    6.9196000   -2.2257000   -5.2597000
  C    5.7720000   -3.3625000   -1.8780000
  C    1.7113000   -4.4602000    4.5070000
  C   10.0045000   -2.4768000   -7.6883000
  C    6.5346000   -1.2794000   -4.1044000
  C    4.8180000   -2.4619000   -2.6450000
  C   11.2482000   -2.6378000   -6.7856000
  C    5.1405000   -1.5901000   -3.5967000
  C    1.7002000   -4.4015000    6.0505000
  C   12.5437000   -2.3585000   -7.5697000
  C    0.4163000   -4.9521000    6.6445000
  H    4.5301000   -2.4496000    2.0879000
  H    5.2019000   -4.0776000    2.2043000
  H    4.1918000   -4.6455000   -0.0253000
  H    3.5467000   -3.0085000   -0.1416000
  H    2.8818000   -5.0378000    2.0779000
  H    2.2158000   -3.4072000    1.9916000
  H    6.5274000   -3.6834000    0.1159000
  H    5.8662000   -2.0715000   -0.1327000
  H    3.8723000   -4.5111000    4.3259000
  H    3.1843000   -2.8879000    4.2442000
  H    8.3075000   -0.8622000   -6.2133000
  H    9.0533000   -1.9447000   -5.0354000
  H    7.8856000   -2.8612000   -7.7184000
  H    8.7628000   -3.8783000   -6.5850000
  H    6.1704000   -2.1510000   -6.0522000
  H    6.9143000   -3.2576000   -4.8993000
  H    5.5318000   -4.4064000   -2.0931000
  H    6.8020000   -3.2171000   -2.2055000
  H    0.8794000   -3.8698000    4.1142000
  H    1.5642000   -5.4943000    4.1844000
  H    9.9400000   -1.4480000   -8.0519000
  H   10.1190000   -3.1196000   -8.5649000
  H    7.2701000   -1.3599000   -3.3016000
  H    6.5665000   -0.2432000   -4.4499000
  H    3.7669000   -2.5829000   -2.3958000
  H   11.1926000   -1.9483000   -5.9406000
  H   11.2844000   -3.6532000   -6.3835000
  H    4.3449000   -1.0226000   -4.0740000
  H    1.8272000   -3.3686000    6.3832000
  H    2.5462000   -4.9727000    6.4420000
  H   12.5419000   -1.3410000   -7.9675000
  H   12.6491000   -3.0574000   -8.4028000
  H   13.4122000   -2.4702000   -6.9169000
  H   -0.3821000   -5.4743000    8.2095000
$end

$rem
   BASIS  =  6-31G
   GUI  =  2
   METHOD  =  HF
$end
