$molecule
-1 1
  O    0.9777000   -4.2401000    8.0591000
  O   -0.3409000   -3.9332000    6.3134000
  C    4.3411000   -3.8229000    1.4466000
  C    4.1452000   -4.0057000   -0.0731000
  C    3.0097000   -4.0077000    2.2048000
  C    5.4793000   -3.8409000   -0.8352000
  C    3.2014000   -3.8357000    3.7263000
  C    8.2658000   -1.7967000   -5.6361000
  C    8.7474000   -2.3622000   -6.9916000
  C    6.7983000   -2.1883000   -5.3630000
  C    5.3232000   -4.0966000   -2.3496000
  C    1.8698000   -4.0345000    4.4816000
  C   10.1785000   -1.9085000   -7.3608000
  C    6.3103000   -1.6377000   -4.0080000
  C    4.4473000   -3.0553000   -3.0223000
  C   11.2601000   -2.5195000   -6.4413000
  C    4.8674000   -2.0263000   -3.7528000
  C    2.0561000   -3.8659000    6.0061000
  C   12.6743000   -2.1343000   -6.9130000
  C    0.7700000   -4.0996000    6.7765000
  H    4.7404000   -2.8249000    1.6456000
  H    5.0715000   -4.5503000    1.8104000
  H    3.7356000   -5.0000000   -0.2691000
  H    3.4196000   -3.2723000   -0.4329000
  H    2.6093000   -5.0038000    1.9987000
  H    2.2803000   -3.2777000    1.8440000
  H    6.2102000   -4.5482000   -0.4355000
  H    5.8782000   -2.8361000   -0.6738000
  H    3.9363000   -4.5611000    4.0851000
  H    3.5937000   -2.8367000    3.9339000
  H    8.3568000   -0.7075000   -5.6411000
  H    8.8933000   -2.1790000   -4.8281000
  H    8.0672000   -2.0231000   -7.7771000
  H    8.7001000   -3.4541000   -6.9766000
  H    6.1607000   -1.8012000   -6.1619000
  H    6.7050000   -3.2774000   -5.3656000
  H    4.8972000   -5.0895000   -2.5124000
  H    6.3157000   -4.1181000   -2.8032000
  H    1.1358000   -3.3092000    4.1210000
  H    1.4773000   -5.0334000    4.2739000
  H   10.2383000   -0.8175000   -7.3312000
  H   10.3791000   -2.2125000   -8.3913000
  H    6.9596000   -2.0038000   -3.2101000
  H    6.3950000   -0.5483000   -4.0006000
  H    3.3770000   -3.2140000   -2.9125000
  H   11.1247000   -2.1708000   -5.4154000
  H   11.1684000   -3.6085000   -6.4361000
  H    4.1284000   -1.3650000   -4.1994000
  H    2.4221000   -2.8604000    6.2274000
  H    2.8142000   -4.5707000    6.3580000
  H   12.8006000   -1.0492000   -6.9068000
  H   12.8566000   -2.5002000   -7.9262000
  H   13.4253000   -2.5709000   -6.2509000
$end

$rem
   BASIS  =  6-31G
   GUI  =  2
   METHOD  =  HF
$end
