units                real
atom_style           full
boundary             p p p
dielectric           1
special_bonds        lj/coul 0.0 0.0 1.0
                     
pair_style           lj/charmm/coul/charmm 13 14.00000
bond_style           harmonic
angle_style          hybrid cosine/periodic cosine/squared
dihedral_style       harmonic
improper_style       umbrella
kspace_style         none
                     
read_data            data.test
                     
                     
                     
pair_modify          mix geometric
neighbor             2.0 multi
neigh_modify         every 2 delay 4 check yes
thermo_style         multi
thermo_modify        line multi format float %14.6f flush yes
                     
angle_coeff          1 cosine/squared 16.32422 92.20000 # Zn3+2 S_R Zn3+2
angle_coeff          2 cosine/squared 163.61525 109.47120 # S_R Zn3+2 S_R
angle_coeff          3 cosine/squared 67.13056 109.47120 # H_ C_3 C_3
angle_coeff          4 cosine/squared 148.75434 109.47120 # C_3 C_3 C_3
angle_coeff          5 cosine/periodic 14.09201 -1 3 # H_ C_2 C_3
angle_coeff          6 cosine/squared 150.73457 109.47120 # C_2 C_3 C_3
angle_coeff          7 cosine/squared 68.57506 109.47120 # H_ C_3 C_2
angle_coeff          8 cosine/periodic 14.35194 -1 3 # H_ C_2 C_2
angle_coeff          9 cosine/periodic 32.41556 -1 3 # C_2 C_2 C_3
angle_coeff          10 cosine/squared 67.16908 104.51000 # C_2 O_3 H___b
angle_coeff          11 cosine/periodic 42.61815 -1 3 # O_2 C_2 C_3
angle_coeff          12 cosine/periodic 39.93993 -1 3 # C_3 C_2 O_3
angle_coeff          13 cosine/periodic 53.73595 -1 3 # O_2 C_2 O_3
angle_coeff          14 cosine/squared 35.33181 109.47120 # H_ C_3 H_
                     
variable             input string in.test
variable             sname string test
                     
                     
timestep             1
                     
                     
run                  0
