units                real
atom_style           full
boundary             p p p
dielectric           1
special_bonds        lj/coul 0.0 0.0 1.0
                     
pair_style           lj/charmm/coul/charmm 9 10.00000
bond_style           harmonic
angle_style          none
dihedral_style       none
improper_style       none
kspace_style         none
                     
read_data            data.ase-ZnS
                     
                     
                     
pair_modify          mix geometric
neighbor             2.0 multi
neigh_modify         every 2 delay 4 check yes
thermo_style         multi
thermo_modify        line multi format float %14.6f flush yes
variable             input string in.ase-ZnS
variable             sname string ase-ZnS
                     
                     
timestep             1
                     
                     
run                  0
